idb/edb/bench-capon.lp

% 32 moves
move(a,b).
move(b,c). move(b,e). move(b,f). move(b,v). move(b,w). move(b,y).
move(c,d). move(c,q). move(c,z).
move(d,e). move(d,x).
move(e,m). move(e,i). move(e,s).
move(f,h). move(f,s).
move(g,q).
move(h,q).
move(i,j). move(i,k). move(i,l). move(i,o).
move(j,n).
move(m,o).
move(n,m).
move(o,m).
move(s,g). move(s,t).
move(t,b). move(t,u).
move(u,v).




